NAME : rnd35_20.tsp
TYPE : TSP
DIMENSION : 20
EDGE_WEIGHT_TYPE : EUC_2D
NODE_COORD_SECTION
1 674 67
2 775 843
3 568 573
4 644 963
5 125 517
6 362 257
7 130 529
8 684 157
9 510 730
10 319 331
11 520 167
12 434 751
13 233 504
14 373 102
15 248 852
16 1000 297
17 647 534
18 520 203
19 114 893
20 911 481
